(declare-const x0 Real)
(assert (<= 0.0 x0))
(declare-const x1 Real)
(assert (<= 0.0 x1))
(declare-const x2 Real)
(assert (<= 0.0 x2))


(minimize
	(+ (^ (+ 0.934560 (- (exp (- (* 0.100000 x0))) (* x2 (exp (- (* 0.100000 x1)))))) 2.0) (^ (+ (- 0.142054) (- (exp (- (* 0.200000 x0))) (* x2 (exp (- (* 0.200000 x1)))))) 2.0) (^ (+ (- 0.491883) (- (exp (- (* 0.300000 x0))) (* x2 (exp (- (* 0.300000 x1)))))) 2.0) (^ (+ (- 0.578742) (- (exp (- (* 0.400000 x0))) (* x2 (exp (- (* 0.400000 x1)))))) 2.0) (^ (+ (- 0.572841) (- (exp (- (* 0.500000 x0))) (* x2 (exp (- (* 0.500000 x1)))))) 2.0) (^ (+ (- 0.536418) (- (exp (- (* 0.600000 x0))) (* x2 (exp (- (* 0.600000 x1)))))) 2.0) (^ (+ (- 0.492026) (- (exp (- (* 0.700000 x0))) (* x2 (exp (- (* 0.700000 x1)))))) 2.0) (^ (+ (- 0.447652) (- (exp (- (* 0.800000 x0))) (* x2 (exp (- (* 0.800000 x1)))))) 2.0) (^ (+ (- 0.405953) (- (exp (- (* 0.900000 x0))) (* x2 (exp (- (* 0.900000 x1)))))) 2.0) (^ (+ (- 0.367652) (- (exp (- x0)) (* x2 (exp (- x1))))) 2.0))
)
(check-sat)
(get-objectives)
(exit)

